\ LP format - for model browsing. Use MPS format to capture full model detail.
Maximize
  45.14285714285714 z1 + 22.85714285714286 z2 + 41 z3 + 12.57142857142857 z4
   + 22.85714285714285 z5 + 22.28571428571429 z6 + 17.71428571428571 z7
   + 10.28571428571428 z8 + 15.42857142857142 z9 + 29 z10
   + 11.14285714285715 z11 + 46 z12 + 20 z13 + 30.28571428571428 z14
   + 36.85714285714285 z15 + 39 z16 + 35.42857142857143 z17 + 41 z18
   + 48 z19 + 40 z20
Subject To
 constraint1: 47 z1 + 24 z2 + 41 z3 + 14 z4 + 26 z5 + 23 z6 + 19 z7 + 11 z8
   + 18 z9 + 33 z10 + 13 z11 + 46 z12 + 20 z13 + 32 z14 + 41 z15 + 39 z16
   + 36 z17 + 41 z18 + 48 z19 + 40 z20 <= 200
 constraints2_3_&_11: z3 - z11 = 0
 constraints2_11_&_18: z11 - z18 = 0
 constraints2_10_&_16: z10 - z16 = 0
 constraints2_12_&_15: z12 - z15 = 0
 constraints3_1_|_2: z1 + z2 <= 1
 constraints3_3_|_10: z3 + z10 <= 1
 constraints3_3_|_13: z3 + z13 <= 1
 constraints3_3_|_16: z3 + z16 <= 1
 constraints3_3_|_17: z3 + z17 <= 1
 constraints3_3_|_19: z3 + z19 <= 1
 constraints3_3_|_20: z3 + z20 <= 1
 constraints3_5_|_12: z5 + z12 <= 1
 constraints3_6_|_7: z6 + z7 <= 1
 constraints3_10_|_18: z10 + z18 <= 1
 constraints3_12_|_20: z12 + z20 <= 1
 constraints3_13_|_14: z13 + z14 <= 1
 constraints3_14_|_19: z14 + z19 <= 1
 constraints3_16_|_18: z16 + z18 <= 1
 constraints3_17_|_19: z17 + z19 <= 1
 constraints3_19_|_20: z19 + z20 <= 1
Bounds
Binaries
 z1 z2 z3 z4 z5 z6 z7 z8 z9 z10 z11 z12 z13 z14 z15 z16 z17 z18 z19 z20
End
